c User generated cnf file
p cnf 12 64
8 -11 6 0 
-3 11 12 0 
6 6 -4 0 
2 10 -2 0 
3 -10 3 0 
12 7 -4 0 
7 -8 10 0 
4 -12 5 0 
8 -3 1 0 
10 -4 11 0 
-11 5 12 0 
1 -1 1 0 
10 3 -12 0 
-4 3 3 0 
-2 6 11 0 
2 -2 3 0 
-12 9 4 0 
10 -4 6 0 
-12 12 2 0 
2 -7 12 0 
11 7 -3 0 
9 -7 5 0 
7 -4 6 0 
5 -4 5 0 
7 1 -1 0 
-11 3 9 0 
9 1 -6 0 
-10 11 4 0 
6 -7 5 0 
11 -6 12 0 
9 9 -6 0 
6 -1 12 0 
-10 6 5 0 
10 3 -6 0 
2 -6 7 0 
10 -3 12 0 
12 -9 12 0 
2 10 -9 0 
1 -9 5 0 
11 9 -2 0 
7 5 -8 0 
-10 6 11 0 
12 -11 9 0 
2 -1 10 0 
7 -5 6 0 
1 9 -12 0 
1 -12 4 0 
7 -8 3 0 
7 6 -7 0 
10 -4 4 0 
6 -7 5 0 
8 8 -6 0 
4 2 -4 0 
12 9 -1 0 
2 9 -3 0 
4 6 -12 0 
8 1 -7 0 
7 -1 11 0 
-9 7 5 0 
-12 6 2 0 
12 -12 11 0 
-4 4 3 0 
8 3 -3 0 
3 -4 12 0 
